150
[15,16,17,18,19,20,21,22,23,24,25,26,27,28,29,30,31,32,33,34,35,36,37,38,39,40,41,42,43,44,45,46,47,48,49,50,51,52,53,54,55,56,57,58,59,60,61,62,63,64,65,66,67,68,69,70,71,72,73,74,75,76,77,78,79,80,81,82,83,84,85,86,87,88,89,90,91,92,93,94,95,96,97,98,99,100,101,102,103,104,105]
[9,8,7,6,4,11,4,5,8,8,9,9,11,8,7,14,8,10,10,10,8,7,11,11,8,4,9,7,6,4,11,13,16,6,9,9,12,8,6,13,10,12,7,7,10,4,9,5,8,7,8,6,4,13,6,9,6,13,5,12,13,7,5,11,6,10,7,7,9,7,10,9,8,9,9,6,7,2,9,5,10,8,3,5,14,8,11,10,8,7,5]
